
Gurobi 10.0.1 (linux64) logging started Sun Nov 26 16:56:54 2023

Set parameter LogFile to value "ArtificialInstance/ExperimentV2/S4T3K3/BaSp/gurobi91.txt"
Gurobi Optimizer version 10.0.1 build v10.0.1rc0 (linux64)

CPU model: AMD EPYC 7H12 64-Core Processor, instruction set [SSE2|AVX|AVX2]
Thread count: 128 physical cores, 128 logical processors, using up to 32 threads

Academic license 656792 - for non-commercial use only - registered to b.___@student.vu.nl
Optimize a model with 3470 rows, 5200 columns and 17440 nonzeros
Model fingerprint: 0xe8f12685
Variable types: 0 continuous, 5200 integer (5200 binary)
Coefficient statistics:
  Matrix range     [1e+00, 1e+00]
  Objective range  [9e-01, 2e+01]
  Bounds range     [1e+00, 1e+00]
  RHS range        [1e+00, 1e+00]
Presolve time: 0.02s
Presolved: 3470 rows, 5200 columns, 17440 nonzeros
Variable types: 0 continuous, 5200 integer (5200 binary)
Found heuristic solution: objective 641.0328958
Found heuristic solution: objective 335.3461979

Root relaxation: objective 5.325918e+01, 3412 iterations, 0.12 seconds (0.11 work units)

    Nodes    |    Current Node    |     Objective Bounds      |     Work
 Expl Unexpl |  Obj  Depth IntInf | Incumbent    BestBd   Gap | It/Node Time

     0     0   53.25918    0  770  335.34620   53.25918  84.1%     -    0s
H    0     0                     224.5529647   53.25918  76.3%     -    0s
H    0     0                     192.5933626   53.25918  72.3%     -    0s
H    0     0                     102.9912168   53.25918  48.3%     -    0s
     0     0   59.43783    0 1173  102.99122   59.43783  42.3%     -    0s
H    0     0                      97.9943755   63.74615  34.9%     -    0s
H    0     0                      96.7408844   63.74615  34.1%     -    0s
     0     0   63.74615    0 1212   96.74088   63.74615  34.1%     -    0s
     0     0   63.74615    0 1211   96.74088   63.74615  34.1%     -    0s
H    0     0                      92.0441639   65.49983  28.8%     -    1s
H    0     0                      89.1579685   65.49983  26.5%     -    1s
     0     0   65.49983    0 1227   89.15797   65.49983  26.5%     -    1s
H    0     0                      86.0096131   65.49983  23.8%     -    1s
     0     0   65.66027    0 1194   86.00961   65.66027  23.7%     -    1s
     0     0   65.66027    0 1198   86.00961   65.66027  23.7%     -    1s
     0     0   66.93825    0 1161   86.00961   66.93825  22.2%     -    1s
     0     0   66.95327    0 1133   86.00961   66.95327  22.2%     -    1s
     0     0   66.95806    0 1133   86.00961   66.95806  22.2%     -    1s
     0     0   67.69896    0 1174   86.00961   67.69896  21.3%     -    2s
     0     0   67.74539    0 1181   86.00961   67.74539  21.2%     -    2s
     0     0   67.74539    0 1180   86.00961   67.74539  21.2%     -    2s
H    0     0                      85.1871960   68.58979  19.5%     -    2s
     0     0   68.58979    0 1182   85.18720   68.58979  19.5%     -    2s
     0     0   68.60564    0 1158   85.18720   68.60564  19.5%     -    2s
     0     0   68.74190    0 1131   85.18720   68.74190  19.3%     -    2s
     0     0   68.74190    0 1134   85.18720   68.74190  19.3%     -    2s
     0     0   69.49473    0 1110   85.18720   69.49473  18.4%     -    2s
     0     0   69.57239    0 1122   85.18720   69.57239  18.3%     -    2s
     0     0   69.58399    0 1129   85.18720   69.58399  18.3%     -    2s
     0     0   69.58492    0 1132   85.18720   69.58492  18.3%     -    2s
     0     0   69.75775    0 1214   85.18720   69.75775  18.1%     -    3s
     0     0   69.78210    0 1163   85.18720   69.78210  18.1%     -    3s
     0     0   69.78255    0 1169   85.18720   69.78255  18.1%     -    3s
     0     0   70.00441    0 1087   85.18720   70.00441  17.8%     -    3s
H    0     0                      83.2198699   70.05717  15.8%     -    3s
     0     0   70.05717    0 1112   83.21987   70.05717  15.8%     -    3s
     0     0   70.07471    0 1094   83.21987   70.07471  15.8%     -    3s
     0     0   70.07777    0 1120   83.21987   70.07777  15.8%     -    3s
     0     0   70.16390    0 1127   83.21987   70.16390  15.7%     -    3s
     0     0   70.17778    0 1119   83.21987   70.17778  15.7%     -    3s
     0     0   70.17788    0 1162   83.21987   70.17788  15.7%     -    3s
     0     0   70.18529    0 1134   83.21987   70.18529  15.7%     -    3s
     0     0   70.18529    0 1044   83.21987   70.18529  15.7%     -    3s
H    0     0                      82.7977518   70.18529  15.2%     -    4s
H    0     0                      78.1941571   70.18529  10.2%     -    4s
     0     2   70.18529    0 1044   78.19416   70.18529  10.2%     -    4s
     1     4   70.37547    1 1047   78.19416   70.18554  10.2%  1532    5s

Cutting planes:
  Gomory: 13
  Zero half: 241
  RLT: 206

Explored 627 nodes (253931 simplex iterations) in 9.23 seconds (8.11 work units)
Thread count was 32 (of 128 available processors)

Solution count 10: 78.1942 82.7978 83.2199 ... 102.991

Optimal solution found (tolerance 1.00e-04)
Best objective 7.819415711565e+01, best bound 7.819415711565e+01, gap 0.0000%
